(set-info :source |printed by MathSAT|)
(declare-fun |!{$(in_main#0)<N>}| () Int)
(declare-fun |!{$(in_main#0)<N>}.next| () Int)
(declare-fun |!{$(in_main#0)<i>}| () Int)
(declare-fun |!{$(in_main#0)<i>}.next| () Int)
(declare-fun |!{$(in_main#0)<k>}| () Int)
(declare-fun |!{$(in_main#0)<k>}.next| () Int)
(declare-fun |!{$(in_main#0)<l>}| () Int)
(declare-fun |!{$(in_main#0)<l>}.next| () Int)
(declare-fun |!{$(in_main#0)<a.1>}| () (Array Int Int))
(declare-fun |!{$(in_main#0)<a.1>}.next| () (Array Int Int))
(declare-fun |!{$(in_main#0)<$(in___VERIFIER_nondet_int#0)<h#<__VERIFIER_nondet_int.return>>>}| () Int)
(declare-fun !pc () Int)
(declare-fun !pc.next () Int)
(declare-fun |%{$(in_main#0)<i>}#1| () Int)
(declare-fun |%{$(in_main#0)<k>}#1| () Int)
(declare-fun |%{$(in_main#0)<l>}#1| () Int)
(declare-fun |%{$(in_main#0)<a.1>}#1| () (Array Int Int))
(define-fun .def_26 () Int (! !pc :next !pc.next))
(define-fun .def_29 () Bool (! (= .def_26 2) :init true))
(define-fun .def_139 () Bool (= .def_26 31))
(define-fun .def_108 () Bool (= !pc.next 44))
(define-fun .def_142 () Bool (and .def_108 .def_139))
(define-fun .def_135 () Bool (= |!{$(in_main#0)<l>}.next| 0))
(define-fun .def_10 () Int (! |!{$(in_main#0)<i>}| :next |!{$(in_main#0)<i>}.next|))
(define-fun .def_80 () Bool (= .def_10 |!{$(in_main#0)<i>}.next|))
(define-fun .def_8 () Int (! |!{$(in_main#0)<N>}| :next |!{$(in_main#0)<N>}.next|))
(define-fun .def_78 () Bool (= .def_8 |!{$(in_main#0)<N>}.next|))
(define-fun .def_89 () Bool (and .def_78 .def_80))
(define-fun .def_12 () Int (! |!{$(in_main#0)<k>}| :next |!{$(in_main#0)<k>}.next|))
(define-fun .def_82 () Bool (= .def_12 |!{$(in_main#0)<k>}.next|))
(define-fun .def_90 () Bool (and .def_82 .def_89))
(define-fun .def_136 () Bool (and .def_90 .def_135))
(define-fun .def_16 () (Array Int Int) (! |!{$(in_main#0)<a.1>}| :next |!{$(in_main#0)<a.1>}.next|))
(define-fun .def_86 () Bool (= .def_16 |!{$(in_main#0)<a.1>}.next|))
(define-fun .def_137 () Bool (and .def_86 .def_136))
(define-fun .def_118 () Bool (<= .def_8 .def_10))
(define-fun .def_138 () Bool (and .def_118 .def_137))
(define-fun .def_143 () Bool (and .def_138 .def_142))
(define-fun .def_61 () Bool (= !pc.next 31))
(define-fun .def_140 () Bool (and .def_61 .def_139))
(define-fun .def_120 () (Array Int Int) (store .def_16 .def_12 .def_12))
(define-fun .def_132 () Bool (= |!{$(in_main#0)<a.1>}.next| .def_120))
(define-fun .def_127 () Int (* (- 1) |!{$(in_main#0)<k>}.next|))
(define-fun .def_128 () Int (+ .def_12 .def_127))
(define-fun .def_129 () Bool (= .def_128 (- 1)))
(define-fun .def_123 () Int (* (- 1) |!{$(in_main#0)<i>}.next|))
(define-fun .def_124 () Int (+ .def_10 .def_123))
(define-fun .def_125 () Bool (= .def_124 (- 1)))
(define-fun .def_126 () Bool (and .def_78 .def_125))
(define-fun .def_130 () Bool (and .def_126 .def_129))
(define-fun .def_14 () Int (! |!{$(in_main#0)<l>}| :next |!{$(in_main#0)<l>}.next|))
(define-fun .def_84 () Bool (= .def_14 |!{$(in_main#0)<l>}.next|))
(define-fun .def_131 () Bool (and .def_84 .def_130))
(define-fun .def_133 () Bool (and .def_131 .def_132))
(define-fun .def_119 () Bool (not .def_118))
(define-fun .def_134 () Bool (and .def_119 .def_133))
(define-fun .def_141 () Bool (and .def_134 .def_140))
(define-fun .def_144 () Bool (or .def_141 .def_143))
(define-fun .def_103 () Bool (= .def_26 44))
(define-fun .def_64 () Bool (= !pc.next 0))
(define-fun .def_112 () Bool (and .def_64 .def_103))
(define-fun .def_99 () Bool (and .def_84 .def_90))
(define-fun .def_100 () Bool (and .def_86 .def_99))
(define-fun .def_68 () Bool (<= .def_8 .def_14))
(define-fun .def_101 () Bool (and .def_68 .def_100))
(define-fun .def_113 () Bool (and .def_101 .def_112))
(define-fun .def_109 () Bool (and .def_103 .def_108))
(define-fun .def_92 () Int (* (- 1) |!{$(in_main#0)<l>}.next|))
(define-fun .def_93 () Int (+ .def_14 .def_92))
(define-fun .def_94 () Bool (= .def_93 (- 1)))
(define-fun .def_95 () Bool (and .def_90 .def_94))
(define-fun .def_96 () Bool (and .def_86 .def_95))
(define-fun .def_70 () Int (select .def_16 .def_14))
(define-fun .def_71 () Bool (= .def_14 .def_70))
(define-fun .def_72 () Int (ite .def_71 1 0))
(define-fun .def_73 () Bool (= .def_72 0))
(define-fun .def_74 () Bool (not .def_73))
(define-fun .def_97 () Bool (and .def_74 .def_96))
(define-fun .def_69 () Bool (not .def_68))
(define-fun .def_98 () Bool (and .def_69 .def_97))
(define-fun .def_110 () Bool (and .def_98 .def_109))
(define-fun .def_105 () Bool (= !pc.next 64))
(define-fun .def_106 () Bool (and .def_103 .def_105))
(define-fun .def_79 () Bool (and .def_73 .def_78))
(define-fun .def_81 () Bool (and .def_79 .def_80))
(define-fun .def_83 () Bool (and .def_81 .def_82))
(define-fun .def_85 () Bool (and .def_83 .def_84))
(define-fun .def_87 () Bool (and .def_85 .def_86))
(define-fun .def_88 () Bool (and .def_69 .def_87))
(define-fun .def_107 () Bool (and .def_88 .def_106))
(define-fun .def_111 () Bool (or .def_107 .def_110))
(define-fun .def_114 () Bool (or .def_111 .def_113))
(define-fun .def_65 () Bool (and .def_29 .def_64))
(define-fun .def_55 () Bool (= |!{$(in_main#0)<k>}.next| |%{$(in_main#0)<k>}#1|))
(define-fun .def_53 () Bool (= |!{$(in_main#0)<i>}.next| |%{$(in_main#0)<i>}#1|))
(define-fun .def_43 () Bool (= |!{$(in_main#0)<N>}.next| |!{$(in_main#0)<$(in___VERIFIER_nondet_int#0)<h#<__VERIFIER_nondet_int.return>>>}|))
(define-fun .def_54 () Bool (and .def_43 .def_53))
(define-fun .def_56 () Bool (and .def_54 .def_55))
(define-fun .def_48 () Bool (= |!{$(in_main#0)<l>}.next| |%{$(in_main#0)<l>}#1|))
(define-fun .def_57 () Bool (and .def_48 .def_56))
(define-fun .def_50 () Bool (= |!{$(in_main#0)<a.1>}.next| |%{$(in_main#0)<a.1>}#1|))
(define-fun .def_58 () Bool (and .def_50 .def_57))
(define-fun .def_41 () Bool (<= |!{$(in_main#0)<$(in___VERIFIER_nondet_int#0)<h#<__VERIFIER_nondet_int.return>>>}| 0))
(define-fun .def_59 () Bool (and .def_41 .def_58))
(define-fun .def_66 () Bool (and .def_59 .def_65))
(define-fun .def_62 () Bool (and .def_29 .def_61))
(define-fun .def_46 () Bool (= |!{$(in_main#0)<k>}.next| 0))
(define-fun .def_44 () Bool (= |!{$(in_main#0)<i>}.next| 0))
(define-fun .def_45 () Bool (and .def_43 .def_44))
(define-fun .def_47 () Bool (and .def_45 .def_46))
(define-fun .def_49 () Bool (and .def_47 .def_48))
(define-fun .def_51 () Bool (and .def_49 .def_50))
(define-fun .def_42 () Bool (not .def_41))
(define-fun .def_52 () Bool (and .def_42 .def_51))
(define-fun .def_63 () Bool (and .def_52 .def_62))
(define-fun .def_67 () Bool (or .def_63 .def_66))
(define-fun .def_115 () Bool (or .def_67 .def_114))
(define-fun .def_145 () Bool (! (or .def_115 .def_144) :trans true))
(define-fun .def_116 () Bool (= .def_26 64))
(define-fun .def_146 () Bool (! (not .def_116) :invar-property 0 :invar-property-name ||))
(assert true)
